(set-info :smt-lib-version 2.6)
(set-logic QF_UFLRA)
(set-info :source |
MathSat group

|)
(set-info :category "random")
(set-info :status unsat)
(declare-fun x0 () Real)
(declare-fun x1 () Real)
(declare-fun x2 () Real)
(declare-fun x3 () Real)
(declare-fun x4 () Real)
(declare-fun x5 () Real)
(declare-fun x6 () Real)
(declare-fun x7 () Real)
(declare-fun x8 () Real)
(declare-fun x9 () Real)
(declare-fun x10 () Real)
(declare-fun x11 () Real)
(declare-fun x12 () Real)
(declare-fun x13 () Real)
(declare-fun x14 () Real)
(declare-fun x15 () Real)
(declare-fun x16 () Real)
(declare-fun x17 () Real)
(declare-fun x18 () Real)
(declare-fun x19 () Real)
(declare-fun x20 () Real)
(declare-fun x21 () Real)
(declare-fun x22 () Real)
(declare-fun x23 () Real)
(declare-fun x24 () Real)
(declare-fun x25 () Real)
(declare-fun x26 () Real)
(declare-fun x27 () Real)
(declare-fun x28 () Real)
(declare-fun x29 () Real)
(declare-fun f0_1 (Real) Real)
(declare-fun f0_2 (Real Real) Real)
(declare-fun f0_3 (Real Real Real) Real)
(declare-fun f0_4 (Real Real Real Real) Real)
(declare-fun P0 () Bool)
(declare-fun P1 () Bool)
(declare-fun P2 () Bool)
(declare-fun P3 () Bool)
(declare-fun P4 () Bool)
(declare-fun P5 () Bool)
(declare-fun P6 () Bool)
(declare-fun P7 () Bool)
(declare-fun P8 () Bool)
(declare-fun P9 () Bool)
(declare-fun P10 () Bool)
(declare-fun P11 () Bool)
(declare-fun P12 () Bool)
(declare-fun P13 () Bool)
(declare-fun P14 () Bool)
(declare-fun P15 () Bool)
(declare-fun P16 () Bool)
(declare-fun P17 () Bool)
(declare-fun P18 () Bool)
(declare-fun P19 () Bool)
(declare-fun P20 () Bool)
(declare-fun P21 () Bool)
(declare-fun P22 () Bool)
(declare-fun P23 () Bool)
(declare-fun P24 () Bool)
(declare-fun P25 () Bool)
(declare-fun P26 () Bool)
(declare-fun P27 () Bool)
(declare-fun P28 () Bool)
(declare-fun P29 () Bool)
(assert (let ((?v_13 (= (- (+ (* 16 x9) (* 2 x12)) (* 23 x4)) 17)) (?v_68 (distinct (+ (- (* 14 x8) (* 32 x28)) (* 23 x9)) 39)) (?v_74 (= (+ (- (* 33 x0) (* 36 x16)) (* 32 x12)) 0)) (?v_30 (distinct (- (- (* 9 x28) (* 41 x22)) (* 21 x12)) 17)) (?v_29 (<= (- (+ (* 28 x10) (* 32 x8)) (* 38 x2)) 4)) (?v_123 (distinct (- (- (* 42 x28) (* 7 x2)) (* 28 x24)) 3)) (?v_119 (= x20 x6)) (?v_31 (distinct (f0_2 x27 x14) (f0_2 x28 x0))) (?v_21 (distinct (f0_2 x5 x19) x5)) (?v_15 (distinct (f0_1 x14) x27)) (?v_40 (distinct (f0_1 x10) (f0_2 x18 x11))) (?v_20 (= (f0_2 x12 x7) (f0_1 x24))) (?v_67 (f0_1 x17))) (let ((?v_103 (= ?v_67 (f0_1 x23))) (?v_91 (= x10 (f0_1 x26))) (?v_1 (= (f0_1 x29) (f0_2 x7 x29))) (?v_37 (= x12 (f0_1 x4))) (?v_17 (f0_1 x28))) (let ((?v_92 (distinct x7 ?v_17)) (?v_9 (f0_1 x19))) (let ((?v_22 (= ?v_9 x21)) (?v_51 (distinct (f0_1 x5) x1)) (?v_135 (distinct (f0_2 x1 x29) x26)) (?v_10 (= x6 (f0_2 x8 x8))) (?v_83 (distinct (f0_1 x25) x20)) (?v_16 (distinct (f0_1 x1) (f0_1 x6))) (?v_3 (= (f0_2 x21 x4) x3)) (?v_8 (distinct (f0_2 x13 x16) (f0_1 x20))) (?v_94 (= x8 x25)) (?v_6 (distinct ?v_67 (f0_2 x22 x5))) (?v_27 (= x13 (f0_2 x18 x7))) (?v_41 (= ?v_9 (f0_1 x21))) (?v_75 (distinct x9 x24)) (?v_55 (distinct ?v_17 ?v_17)) (?v_33 (distinct (f0_2 x7 x1) (f0_2 x22 x23))) (?v_63 (f0_1 x27))) (let ((?v_4 (= x8 ?v_63)) (?v_56 (distinct x10 (f0_2 x7 x20))) (?v_110 (= (f0_2 x23 x27) ?v_17)) (?v_64 (= (f0_2 x20 x10) ?v_63)) (?v_28 (not P14)) (?v_118 (not ?v_1)) (?v_2 (not ?v_15)) (?v_73 (not ?v_6)) (?v_114 (not P10)) (?v_84 (not ?v_8)) (?v_115 (not P17)) (?v_7 (not ?v_30)) (?v_53 (not ?v_91)) (?v_23 (not P19)) (?v_77 (not ?v_135))) (let ((?v_25 (not ?v_110)) (?v_46 (not ?v_13)) (?v_86 (not P1)) (?v_50 (not P27)) (?v_100 (not ?v_55)) (?v_113 (not ?v_20)) (?v_81 (not P28)) (?v_26 (not P20)) (?v_65 (not P7)) (?v_58 (not P23)) (?v_59 (not ?v_51)) (?v_107 (not P12)) (?v_57 (not ?v_31)) (?v_43 (not ?v_68)) (?v_36 (not P4)) (?v_34 (not ?v_119)) (?v_42 (not ?v_33)) (?v_76 (not P22)) (?v_85 (not ?v_92)) (?v_80 (not P6)) (?v_130 (not ?v_37)) (?v_60 (not P29)) (?v_98 (not ?v_27)) (?v_47 (not P3)) (?v_79 (not P26)) (?v_87 (not P24)) (?v_90 (not ?v_16)) (?v_112 (not ?v_41)) (?v_121 (not ?v_22)) (?v_66 (not P11)) (?v_52 (not P18)) (?v_70 (not ?v_4)) (?v_106 (not ?v_56)) (?v_61 (not P5)) (?v_95 (not ?v_75)) (?v_146 (not P9)) (?v_105 (not ?v_64)) (?v_109 (not ?v_83)) (?v_108 (not ?v_21)) (?v_96 (not ?v_40)) (?v_134 (not ?v_3)) (?v_140 (not ?v_103)) (?v_117 (not ?v_74)) (?v_116 (not P2)) (?v_128 (not P13)) (?v_143 (not P25)) (?v_133 (not ?v_10)) (?v_124 (not P21)) (?v_139 (not ?v_123)) (?v_132 (not ?v_29)) (?v_137 (not P8)) (?v_151 (not P15)) (?v_144 (not P0)) (?v_150 (not ?v_94)) (?v_138 (<= (- (- (* 16 x13) 0) (* 23 x7)) 32))) (let ((?v_69 (not ?v_138)) (?v_126 (< (- (* 42 x19) (* 39 x13)) 43))) (let ((?v_93 (not ?v_126)) (?v_5 (<= (- (- (* (- 39) x11) (* 24 x5)) (* 14 x16)) 39)) (?v_0 (<= (- (+ (* (- 32) x8) (* 36 x23)) (* 8 x9)) 16)) (?v_127 (distinct (+ (- (* 20 x4) 0) (* 29 x29)) (- 10)))) (let ((?v_97 (not ?v_127)) (?v_11 (distinct (- (+ (* (- 16) x10) (* 8 x16)) (* 29 x28)) 0))) (let ((?v_142 (not ?v_11)) (?v_35 (= (+ (- 0 (* 36 x10)) (* 14 x6)) (- 41))) (?v_12 (<= (+ (- (* (- 20) x0) (* 38 x22)) (* 30 x5)) 28))) (let ((?v_24 (not ?v_12)) (?v_39 (< (+ (* 10 x24) (* 22 x7) (* 22 x2)) (- 33)))) (let ((?v_62 (not ?v_39)) (?v_19 (not ?v_5)) (?v_78 (< (- (- (* 2 x1) (* 32 x23)) (* 34 x20)) (- 22)))) (let ((?v_14 (not ?v_78)) (?v_120 (< (- (+ (* (- 10) x23) (* 7 x19)) (* 38 x8)) 42))) (let ((?v_111 (not ?v_120)) (?v_88 (not ?v_0)) (?v_32 (< (- (+ (* (- 25) x11) (* 12 x23)) (* 30 x24)) 2)) (?v_18 (< (- (- (* 4 x29) (* 4 x1)) (* 11 x22)) (- 3))) (?v_72 (< (- (+ (* (- 18) x15) (* 42 x1)) (* 3 x6)) 44)) (?v_71 (< (+ (- (* (- 42) x17) (* 16 x22)) (* 38 x18)) 21)) (?v_54 (< (- (- 0 (* 5 x20)) (* 2 x14)) (- 23)))) (let ((?v_149 (not ?v_54)) (?v_49 (= (+ (- (* 31 x13) (* 16 x11)) (* 6 x27)) (- 13)))) (let ((?v_38 (not ?v_49)) (?v_125 (not ?v_32)) (?v_48 (distinct (+ (* (- 19) x22) (* 35 x18) (* 41 x7)) 27))) (let ((?v_44 (not ?v_48)) (?v_45 (distinct (+ (- (* 11 x3) (* 13 x15)) (* 37 x5)) (- 36))) (?v_89 (not ?v_18)) (?v_102 (<= (+ (* (- 42) x21) (* 42 x4) (* 18 x13)) (- 31))) (?v_104 (< (- (- (* (- 22) x24) (* 4 x12)) (* 31 x6)) (- 17)))) (let ((?v_152 (not ?v_104)) (?v_147 (not ?v_71)) (?v_101 (= (+ (* 8 x22) (* 39 x21) (* 7 x16)) (- 38))) (?v_129 (not ?v_45)) (?v_131 (< (- (- (* 40 x13) (* 41 x18)) (* 30 x22)) (- 12)))) (let ((?v_82 (not ?v_131)) (?v_99 (< (- (+ (* (- 35) x27) (* 21 x29)) (* 20 x11)) (- 24))) (?v_145 (not ?v_101)) (?v_136 (not ?v_35))) (let ((?v_122 (not ?v_99)) (?v_141 (not ?v_102)) (?v_148 (not ?v_72)) (?v_153 (or ?v_66 ?v_99))) (and (and (and (and (and (and (and (and (and (and (and (and (and (and (and (and (and (and (and (and (and (and (and (and (and (and (and (and (and (and (and (and (and (and (and (and (and (and (and (and (and (and (and (and (and (and (and (and (and (and (and (and (and (and (and (and (and (and (and (and (and (and (and (and (and (and (and (and (and (and (and (and (and (and (and (and (and (and (and (and (and (and (and (and (and (and (and (and (and (and (and (and (and (and (and (and (and (and (and (and (and (and (and (and (and (and (and (and (and (and (and (and (and (and (and (and (and (and (and (and (and (and (and (and (and (and (and (and (and (and (and (and (and (and (and (and (and (and (and (and (and (and (and (and (and (and (and (and (and (and (and (and (and (and (and (and (and (and (and (and (and (and (and (and (and (and (and (and (and (and (and (and (and (and (and (and (and (and (and (and (and (and (and (and (and (and (and (and (and (and (and (and (and (and (and (and (and (and (and (and (and (and (and (and (and (and (and (and (and (and (and (and (and (and (and (and (and (and (and (and (and (and (and (and (and (and (and (and (and (and (and (and (and (and (and (and (and (and (and (and (and (and (and (and (and (and (and (and (and (and (and (and (and (and (and (and (and (and (and (and (and (and (and (and (and (and (and (and (and (and (and (and (and (and (and (and (and (and (and (and (and (and (and (and (and (and (and (and (and (and (and (and (and (and (and (and (and (and (and (and (and (and (and (and (and (and (and (and (and (and (and (and (and (and (and (and (and (and (and (and (and (and (and (and (and (and (and (and (and (and (and (and (and (and (and (and (and (and (and (and (and (and (and (and (and (and (and (and (and (and (and (and (and (and (and (and (and (and (and (and (and (and (and (and (and (and (and (and (and (and (and (and (and (and (and (and (and (and (and (and (and (and (and (and (and (and (and (and (and (and (and (and (and (and (and (and (and (and (and (and (and (and (and (and (and (and (and (and (and (and (and (and (and (and (and (and (and (and (and (and (and (and (and (and (and (and (and (and (and (and (and (and (and (and (and (and (and (and (and (and (and (and (and (and (and (and (and (and (and (or (or ?v_5 ?v_29) P4) (or (or ?v_28 P2) ?v_0)) (or (or P2 ?v_0) P29)) (or (or P29 ?v_3) ?v_118)) (or (or ?v_97 ?v_56) ?v_40)) (or (or ?v_2 ?v_1) ?v_73)) (or (or ?v_2 ?v_114) ?v_142)) (or (or ?v_3 ?v_35) ?v_27)) (or (or ?v_4 ?v_24) ?v_84)) (or (or ?v_4 ?v_62) ?v_19)) (or (or ?v_115 P1) P12)) (or (or P0 ?v_41) ?v_14)) (or (or P10 ?v_111) ?v_7)) (or (or ?v_88 P27) ?v_6)) (or (or ?v_7 ?v_33) ?v_53)) (or (or P3 ?v_69) ?v_8)) (or (or ?v_21 ?v_20) ?v_10)) (or (or ?v_23 ?v_22) (not P16))) (or (or ?v_77 ?v_3) ?v_31)) (or (or ?v_74 ?v_25) ?v_94)) (or (or ?v_13 ?v_10) ?v_11)) (or (or ?v_75 ?v_12) ?v_46)) (or (or ?v_2 ?v_32) P13)) (or (or ?v_16 ?v_86) ?v_14)) (or (or ?v_18 P4) ?v_15)) (or (or ?v_16 ?v_50) ?v_72)) (or (or ?v_100 P25) ?v_71)) (or (or ?v_18 ?v_19) ?v_1)) (or (or ?v_113 ?v_21) ?v_81)) (or (or ?v_149 ?v_12) ?v_26)) (or (or ?v_65 ?v_22) ?v_23)) (or (or ?v_24 ?v_25) P14)) (or (or ?v_26 ?v_58) ?v_27)) (or (or ?v_59 ?v_107) ?v_19)) (or (or P21 ?v_19) ?v_28)) (or (or ?v_29 ?v_30) ?v_57)) (or (or ?v_38 ?v_43) ?v_36)) (or (or ?v_30 ?v_125) ?v_34)) (or (or P19 ?v_42) ?v_76)) (or (or ?v_34 ?v_19) ?v_85)) (or (or ?v_80 ?v_130) P15)) (or (or ?v_35 ?v_60) ?v_36)) (or (or ?v_37 ?v_98) ?v_47)) (or (or ?v_38 ?v_79) ?v_2)) (or (or ?v_87 ?v_93) ?v_39)) (or (or P11 ?v_40) ?v_90)) (or (or ?v_16 ?v_44) ?v_112)) (or (or ?v_42 ?v_121) ?v_66)) (or (or ?v_45 P7) ?v_27)) (or (or ?v_13 ?v_83) ?v_52)) (or (or ?v_43 P21) ?v_44)) (or (or ?v_45 ?v_70) ?v_46)) (or (or ?v_45 ?v_47) ?v_48)) (or (or ?v_24 ?v_49) P12)) (or (or ?v_50 P8) P5)) (or (or ?v_51 ?v_52) ?v_53)) (or (or ?v_54 P8) P23)) (or (or P17 ?v_39) ?v_55)) (or (or ?v_52 ?v_106) ?v_57)) (or (or ?v_58 ?v_33) ?v_61)) (or (or P15 ?v_37) ?v_59)) (or (or ?v_8 P19) ?v_60)) (or (or ?v_61 ?v_62) ?v_13)) (or (or ?v_62 P17) ?v_64)) (or (or ?v_54 ?v_48) ?v_89)) (or (or ?v_64 ?v_65) ?v_66)) (or (or ?v_23 ?v_19) ?v_103)) (or (or P1 ?v_102) ?v_52)) (or (or ?v_26 ?v_36) ?v_68)) (or (or ?v_69 ?v_152) ?v_68)) (or (or ?v_70 ?v_147) ?v_72)) (or (or P24 ?v_73) ?v_74)) (or (or ?v_95 ?v_23) ?v_34)) (or (or ?v_101 ?v_31) P11)) (or (or ?v_12 ?v_76) ?v_129)) (or (or ?v_2 ?v_77) ?v_146)) (or (or ?v_56 ?v_19) ?v_78)) (or (or P0 ?v_105) P28)) (or (or ?v_79 ?v_27) ?v_25)) (or (or ?v_82 ?v_8) ?v_80)) (or (or ?v_81 ?v_5) ?v_69)) (or (or ?v_53 ?v_82) ?v_68)) (or (or ?v_109 ?v_71) ?v_8)) (or (or ?v_74 P27) ?v_1)) (or (or ?v_84 ?v_85) ?v_47)) (or (or ?v_86 P18) ?v_87)) (or (or P5 ?v_38) P16)) (or (or ?v_75 P2) ?v_108)) (or (or ?v_6 ?v_60) ?v_42)) (or (or P0 ?v_99) ?v_82)) (or (or ?v_16 ?v_96) ?v_88)) (or (or ?v_89 ?v_90) ?v_91)) (or (or ?v_30 ?v_71) ?v_3)) (or (or ?v_15 P17) ?v_92)) (or (or ?v_93 ?v_74) ?v_54)) (or (or ?v_123 ?v_134) ?v_6)) (or (or ?v_53 P24) ?v_94)) (or (or ?v_28 ?v_66) ?v_95)) (or (or ?v_11 P26) ?v_66)) (or (or P1 ?v_46) ?v_96)) (or (or ?v_97 ?v_48) P0)) (or (or ?v_47 ?v_82) ?v_98)) (or (or ?v_99 P24) ?v_64)) (or (or ?v_25 ?v_12) ?v_100)) (or (or ?v_82 ?v_1) ?v_32)) (or (or ?v_91 ?v_145) P26)) (or (or P1 ?v_33) ?v_75)) (or (or ?v_95 P27) ?v_102)) (or (or ?v_102 ?v_91) ?v_58)) (or (or ?v_54 ?v_29) P17)) (or (or ?v_30 P12) ?v_66)) (or (or ?v_94 ?v_140) ?v_104)) (or (or ?v_30 ?v_0) ?v_44)) (or (or ?v_10 ?v_136) ?v_24)) (or (or P1 ?v_1) P19)) (or (or ?v_85 ?v_66) ?v_105)) (or (or ?v_40 ?v_88) ?v_117)) (or (or ?v_106 ?v_27) P12)) (or (or ?v_116 ?v_75) P24)) (or (or ?v_128 ?v_38) ?v_107)) (or (or P5 ?v_108) ?v_0)) (or (or ?v_0 P6) ?v_60)) (or (or ?v_43 ?v_85) ?v_47)) (or (or ?v_74 ?v_13) ?v_12)) (or (or ?v_80 ?v_58) ?v_109)) (or (or ?v_6 ?v_143) ?v_102)) (or (or ?v_22 ?v_110) ?v_111)) (or (or ?v_75 P19) ?v_10)) (or (or ?v_112 ?v_133) ?v_53)) (or (or P14 ?v_113) ?v_0)) (or (or ?v_43 ?v_97) ?v_114)) (or (or ?v_36 P12) ?v_76)) (or (or ?v_33 ?v_6) ?v_88)) (or (or ?v_115 ?v_29) ?v_91)) (or (or ?v_82 ?v_116) ?v_69)) (or (or ?v_25 ?v_117) P1)) (or (or ?v_86 ?v_0) ?v_90)) (or (or ?v_20 ?v_33) ?v_21)) (or (or ?v_48 ?v_51) ?v_31)) (or (or ?v_81 ?v_118) ?v_71)) (or (or ?v_122 ?v_112) ?v_119)) (or (or ?v_34 ?v_53) ?v_109)) (or (or ?v_51 ?v_114) ?v_97)) (or (or ?v_101 ?v_124) P22)) (or (or ?v_141 ?v_120) ?v_21)) (or (or P24 ?v_121) ?v_2)) (or (or ?v_122 ?v_139) ?v_2)) (or (or ?v_99 ?v_83) ?v_49)) (or (or ?v_46 P4) P23)) (or (or ?v_132 ?v_87) ?v_124)) (or (or ?v_66 ?v_137) ?v_56)) (or (or ?v_125 ?v_27) ?v_126)) (or (or ?v_16 P9) ?v_80)) (or (or P20 ?v_15) ?v_113)) (or (or ?v_65 ?v_127) ?v_102)) (or (or ?v_115 ?v_78) ?v_105)) (or (or ?v_21 P8) P19)) (or (or ?v_7 ?v_5) ?v_0)) (or (or ?v_128 ?v_60) ?v_50)) (or (or ?v_109 ?v_19) P29)) (or (or ?v_22 ?v_83) ?v_129)) (or (or ?v_129 P14) ?v_12)) (or (or ?v_66 ?v_130) ?v_113)) (or (or ?v_151 ?v_131) ?v_3)) (or (or ?v_113 P22) ?v_97)) (or (or ?v_81 ?v_98) ?v_96)) (or (or ?v_120 ?v_119) ?v_121)) (or (or ?v_86 ?v_29) ?v_49)) (or (or ?v_10 ?v_60) ?v_48)) (or (or ?v_115 ?v_132) ?v_59)) (or (or ?v_35 ?v_22) ?v_107)) (or (or ?v_125 ?v_34) P6)) (or (or ?v_144 ?v_133) ?v_57)) (or (or ?v_106 ?v_89) ?v_43)) (or (or ?v_86 ?v_81) ?v_134)) (or (or P25 P10) ?v_10)) (or (or ?v_71 ?v_135) ?v_10)) (or (or ?v_34 ?v_65) ?v_56)) (or (or ?v_91 ?v_136) ?v_92)) (or (or ?v_60 ?v_47) ?v_109)) (or (or ?v_4 ?v_79) ?v_97)) (or (or ?v_38 ?v_137) ?v_33)) (or (or ?v_127 ?v_64) ?v_74)) (or (or ?v_137 ?v_42) ?v_138)) (or (or ?v_56 ?v_68) P10)) (or (or P15 ?v_107) ?v_134)) (or (or P17 ?v_70) ?v_68)) (or (or ?v_79 P5) ?v_34)) (or (or ?v_138 P23) P19)) (or (or ?v_139 P28) ?v_134)) (or (or P18 ?v_101) ?v_7)) (or (or P21 ?v_61) ?v_41)) (or (or ?v_140 P25) ?v_83)) (or (or ?v_36 ?v_36) ?v_126)) (or (or ?v_25 ?v_136) ?v_92)) (or (or ?v_92 ?v_84) ?v_111)) (or (or ?v_119 ?v_72) ?v_62)) (or (or ?v_34 ?v_62) P8)) (or (or ?v_54 ?v_15) P13)) (or (or ?v_62 ?v_93) ?v_137)) (or (or ?v_114 ?v_2) ?v_81)) (or (or ?v_92 ?v_50) ?v_41)) (or (or ?v_47 P10) ?v_1)) (or (or ?v_29 ?v_134) ?v_69)) (or (or ?v_39 ?v_28) P28)) (or (or ?v_46 ?v_72) ?v_104)) (or (or ?v_85 P22) ?v_84)) (or (or ?v_5 ?v_10) ?v_0)) (or (or ?v_115 P7) P20)) (or (or ?v_20 P14) ?v_49)) (or (or ?v_58 ?v_141) ?v_30)) (or (or ?v_0 ?v_54) ?v_35)) (or (or ?v_104 ?v_142) P24)) (or (or ?v_92 ?v_35) ?v_137)) (or (or ?v_117 ?v_84) P20)) (or (or ?v_14 ?v_23) ?v_38)) (or (or ?v_94 ?v_110) ?v_53)) (or (or ?v_79 ?v_38) ?v_42)) (or (or ?v_125 ?v_83) ?v_71)) (or (or ?v_120 ?v_100) ?v_19)) (or (or P13 P6) ?v_4)) (or (or P19 P9) ?v_22)) (or (or ?v_143 P24) ?v_74)) (or (or ?v_34 P4) ?v_144)) (or (or ?v_2 ?v_43) P11)) (or (or P19 ?v_110) ?v_75)) (or (or ?v_44 ?v_10) P28)) (or (or ?v_72 P28) ?v_111)) (or (or P16 ?v_142) ?v_97)) (or (or ?v_55 ?v_4) ?v_142)) (or (or P1 ?v_87) ?v_130)) (or (or ?v_71 ?v_33) ?v_131)) (or (or ?v_126 ?v_14) ?v_115)) (or (or ?v_116 P27) ?v_132)) (or (or ?v_84 ?v_51) P3)) (or (or ?v_113 P8) P24)) (or (or P23 ?v_20) ?v_24)) (or (or ?v_95 ?v_122) ?v_3)) (or (or ?v_118 ?v_28) P10)) (or (or ?v_43 P6) ?v_118)) (or (or ?v_27 ?v_101) P25)) (or (or ?v_107 ?v_36) ?v_105)) (or (or ?v_144 ?v_40) ?v_16)) (or (or ?v_123 ?v_45) ?v_80)) (or (or ?v_122 ?v_145) ?v_125)) (or (or ?v_146 ?v_53) P23)) (or (or ?v_28 ?v_83) ?v_146)) (or (or ?v_22 ?v_45) ?v_136)) (or (or ?v_61 ?v_86) ?v_30)) (or (or ?v_18 ?v_43) ?v_117)) (or (or ?v_88 ?v_45) P20)) (or (or ?v_2 ?v_27) ?v_40)) (or (or ?v_145 ?v_133) ?v_148)) (or (or ?v_124 ?v_45) ?v_126)) (or (or ?v_71 ?v_44) ?v_4)) (or (or ?v_49 ?v_46) ?v_1)) (or (or ?v_147 ?v_43) ?v_49)) (or (or ?v_8 ?v_33) P28)) (or (or ?v_40 ?v_95) ?v_120)) (or (or P11 ?v_78) ?v_80)) (or (or ?v_52 ?v_140) ?v_38)) (or (or ?v_1 ?v_12) P28)) (or (or ?v_124 ?v_131) ?v_146)) (or (or P8 ?v_25) ?v_97)) (or (or ?v_38 ?v_117) ?v_16)) (or (or P4 ?v_62) ?v_97)) (or (or ?v_2 ?v_106) ?v_98)) (or (or P20 ?v_88) ?v_49)) (or (or ?v_37 P8) ?v_97)) (or (or ?v_127 ?v_118) ?v_88)) (or (or ?v_142 ?v_123) ?v_16)) (or (or ?v_74 P3) ?v_52)) (or (or ?v_144 ?v_39) P22)) (or (or ?v_51 ?v_121) ?v_37)) (or (or ?v_34 ?v_40) ?v_71)) (or (or ?v_131 ?v_104) ?v_8)) (or (or ?v_35 ?v_114) ?v_49)) (or (or ?v_120 ?v_84) P8)) (or (or ?v_81 ?v_33) ?v_126)) (or (or ?v_20 ?v_34) ?v_11)) (or (or ?v_148 ?v_122) ?v_130)) (or (or P17 ?v_52) ?v_97)) (or (or ?v_50 ?v_139) ?v_146)) (or (or ?v_145 ?v_37) ?v_58)) (or (or ?v_136 P6) ?v_105)) (or (or ?v_149 ?v_122) ?v_95)) (or (or ?v_58 ?v_105) ?v_3)) (or ?v_153 ?v_19)) (or (or ?v_55 P14) ?v_47)) (or (or ?v_56 ?v_121) ?v_77)) (or (or ?v_19 P12) ?v_124)) (or (or ?v_127 P22) ?v_133)) (or (or ?v_110 ?v_125) ?v_18)) (or (or P25 ?v_57) ?v_62)) (or (or ?v_30 ?v_2) ?v_114)) (or (or ?v_140 ?v_52) P20)) (or (or ?v_50 ?v_61) ?v_134)) (or (or ?v_147 ?v_37) ?v_96)) (or (or ?v_35 ?v_133) ?v_126)) (or (or ?v_117 ?v_81) ?v_73)) (or (or ?v_32 ?v_140) P2)) (or (or ?v_107 ?v_145) ?v_75)) (or (or ?v_53 ?v_41) ?v_138)) (or (or ?v_150 ?v_96) ?v_61)) (or (or ?v_33 ?v_0) ?v_22)) (or (or P11 ?v_99) P19)) (or (or ?v_150 ?v_14) P25)) (or (or ?v_40 ?v_108) ?v_98)) (or (or ?v_95 P5) ?v_100)) (or (or ?v_101 ?v_84) ?v_130)) (or (or ?v_44 P26) ?v_76)) (or (or ?v_112 ?v_75) ?v_151)) (or (or ?v_36 ?v_130) ?v_24)) (or (or P25 ?v_99) P16)) (or (or ?v_148 ?v_99) ?v_119)) (or (or ?v_21 ?v_149) ?v_90)) (or (or ?v_137 ?v_78) ?v_80)) (or (or P9 ?v_41) ?v_89)) (or (or ?v_19 ?v_24) ?v_68)) (or (or ?v_115 ?v_7) ?v_14)) (or (or ?v_0 ?v_31) P4)) (or (or ?v_26 ?v_116) ?v_11)) (or (or ?v_144 ?v_120) ?v_85)) (or (or ?v_108 ?v_30) ?v_22)) (or (or P4 ?v_89) ?v_92)) (or (or ?v_36 ?v_145) ?v_122)) (or (or P28 P19) ?v_82)) (or (or ?v_152 ?v_73) ?v_77)) (or (or P14 ?v_148) ?v_118)) (or (or ?v_73 ?v_46) ?v_57)) (or (or ?v_71 ?v_134) ?v_80)) (or (or ?v_131 ?v_73) P28)) (or (or P5 ?v_98) P27)) (or (or ?v_149 P6) ?v_35)) (or (or ?v_140 P24) ?v_46)) (or (or ?v_37 ?v_20) ?v_84)) (or (or ?v_59 ?v_47) ?v_19)) (or (or P22 ?v_77) P19)) (or (or P5 ?v_47) ?v_62)) (or (or ?v_124 ?v_119) ?v_1)) (or (or ?v_21 ?v_87) ?v_114)) (or (or P17 ?v_111) ?v_107)) (or (or ?v_115 P23) ?v_99)) (or (or P21 ?v_4) P8)) (or (or P25 ?v_78) P1)) (or (or ?v_94 ?v_74) P23)) (or (or ?v_136 ?v_61) P13)) (or (or ?v_97 ?v_73) P6)) (or (or P9 ?v_98) ?v_113)) (or (or P14 ?v_150) ?v_115)) (or (or ?v_89 P17) ?v_132)) (or (or ?v_107 ?v_113) P14)) (or (or P12 ?v_112) ?v_100)) (or (or P5 ?v_149) ?v_100)) (or (or ?v_97 ?v_99) P5)) (or (or ?v_15 ?v_47) ?v_135)) (or (or ?v_91 ?v_3) ?v_68)) (or (or ?v_43 ?v_81) ?v_3)) (or (or P12 ?v_141) ?v_124)) (or (or ?v_37 ?v_128) ?v_93)) (or (or ?v_76 ?v_70) ?v_137)) (or (or ?v_131 ?v_146) ?v_93)) (or (or ?v_50 ?v_125) ?v_62)) (or (or ?v_140 ?v_78) ?v_70)) (or (or P10 ?v_43) ?v_106)) (or (or ?v_14 ?v_60) ?v_89)) (or (or P7 ?v_77) ?v_76)) (or (or ?v_65 ?v_101) ?v_74)) (or (or ?v_55 ?v_76) ?v_53)) (or (or ?v_58 P28) ?v_78)) (or (or P2 P7) ?v_48)) (or (or ?v_21 ?v_115) ?v_82)) (or (or ?v_34 ?v_54) ?v_30)) (or (or ?v_93 P21) ?v_117)) (or (or ?v_54 ?v_54) ?v_125)) (or (or ?v_145 ?v_139) P18)) (or (or ?v_119 ?v_87) P26)) (or (or ?v_69 ?v_10) ?v_33)) (or (or ?v_112 ?v_38) ?v_78)) (or (or ?v_31 ?v_45) ?v_28)) (or (or ?v_22 P29) P27)) (or (or ?v_130 ?v_94) ?v_110)) (or (or ?v_50 ?v_115) ?v_123)) (or (or ?v_120 ?v_69) ?v_42)) (or (or ?v_47 ?v_151) ?v_28)) (or (or ?v_4 ?v_89) P5)) (or (or ?v_8 P9) P28)) (or (or ?v_42 ?v_149) ?v_109)) (or (or ?v_125 ?v_47) ?v_83)) (or (or ?v_30 ?v_37) ?v_40)) (or (or ?v_112 ?v_117) ?v_139)) (or (or ?v_95 ?v_110) ?v_78)) (or (or ?v_149 ?v_44) ?v_101)) (or (or ?v_26 ?v_79) ?v_140)) (or (or ?v_68 ?v_53) ?v_131)) (or (or ?v_56 ?v_84) ?v_80)) (or (or ?v_107 ?v_43) ?v_92)) (or (or ?v_50 ?v_85) P1)) (or (or P10 ?v_33) ?v_47)) (or (or ?v_125 ?v_32) ?v_58)) (or (or ?v_121 ?v_64) ?v_89)) (or (or ?v_116 P15) P23)) (or (or ?v_69 ?v_93) P4)) (or (or ?v_50 ?v_13) ?v_113)) (or (or ?v_111 ?v_59) ?v_110)) (or (or P9 ?v_10) ?v_140)) (or (or ?v_103 ?v_145) ?v_149)) (or (or ?v_98 ?v_86) ?v_30)) (or (or P25 ?v_35) ?v_131)) (or (or ?v_134 ?v_82) ?v_122)) (or (or ?v_74 ?v_31) P8)) (or (or P26 ?v_31) ?v_54)) (or (or P18 ?v_115) ?v_81)) (or (or ?v_97 P17) ?v_7)) (or (or ?v_35 P18) ?v_140)) (or (or ?v_41 ?v_141) ?v_96)) (or (or ?v_25 ?v_37) ?v_151)) (or (or P13 ?v_52) ?v_124)) (or (or P27 ?v_72) ?v_71)) (or (or ?v_83 ?v_33) ?v_35)) (or (or ?v_134 ?v_106) ?v_94)) (or (or ?v_108 ?v_0) ?v_129)) (or (or ?v_95 ?v_7) ?v_43)) (or (or ?v_40 P4) ?v_32)) (or ?v_153 ?v_143)) (or (or ?v_79 ?v_94) ?v_15)) (or (or ?v_1 ?v_76) ?v_140)) (or (or ?v_43 P20) ?v_109)) (or (or ?v_13 ?v_51) ?v_110)) (or (or ?v_138 ?v_59) ?v_33)) (or (or ?v_57 P4) ?v_129)) (or (or ?v_44 ?v_2) P9)) (or (or P0 P14) ?v_4)) (or (or ?v_109 ?v_136) ?v_74)) (or (or ?v_24 ?v_43) ?v_85)) (or (or ?v_117 ?v_44) ?v_71)) (or (or ?v_34 ?v_45) ?v_114)) (or (or ?v_6 ?v_125) P3)) (or (or ?v_115 ?v_10) ?v_43)) (or (or ?v_140 P26) ?v_143)) (or (or P28 ?v_88) ?v_7)) (or (or P8 ?v_132) ?v_39)) (or (or P1 ?v_96) ?v_112)) (or (or ?v_0 ?v_91) ?v_138)) (or (or ?v_74 ?v_14) ?v_124)) (or (or ?v_116 ?v_56) ?v_94)) (or (or ?v_40 ?v_48) ?v_140)) (or (or ?v_27 ?v_115) ?v_7)) (or (or ?v_82 P6) ?v_136)) (or (or ?v_148 P11) ?v_140)))))))))))))))))))))))
(check-sat)
(exit)
